
Gurobi 10.0.1 (linux64) logging started Sun Nov 26 15:56:30 2023

Set parameter LogFile to value "ArtificialInstance/ExperimentV2/S3T3K2/BaSp/gurobi91.txt"
Gurobi Optimizer version 10.0.1 build v10.0.1rc0 (linux64)

CPU model: AMD EPYC 7H12 64-Core Processor, instruction set [SSE2|AVX|AVX2]
Thread count: 128 physical cores, 128 logical processors, using up to 32 threads

Academic license 656792 - for non-commercial use only - registered to b.___@student.vu.nl
Optimize a model with 1920 rows, 2880 columns and 9440 nonzeros
Model fingerprint: 0x4960cced
Variable types: 0 continuous, 2880 integer (2880 binary)
Coefficient statistics:
  Matrix range     [1e+00, 1e+00]
  Objective range  [1e+00, 2e+01]
  Bounds range     [1e+00, 1e+00]
  RHS range        [1e+00, 1e+00]
Found heuristic solution: objective 641.0328958
Presolve time: 0.01s
Presolved: 1920 rows, 2880 columns, 9440 nonzeros
Variable types: 0 continuous, 2880 integer (2880 binary)

Root relaxation: objective 3.757560e+01, 1383 iterations, 0.03 seconds (0.03 work units)

    Nodes    |    Current Node    |     Objective Bounds      |     Work
 Expl Unexpl |  Obj  Depth IntInf | Incumbent    BestBd   Gap | It/Node Time

     0     0   37.57560    0  317  641.03290   37.57560  94.1%     -    0s
H    0     0                     255.2954362   37.57560  85.3%     -    0s
H    0     0                     159.5842246   37.57560  76.5%     -    0s
H    0     0                      45.2906397   37.57560  17.0%     -    0s
     0     0   40.38179    0  271   45.29064   40.38179  10.8%     -    0s
     0     0   42.17023    0  346   45.29064   42.17023  6.89%     -    0s
     0     0   42.17023    0  314   45.29064   42.17023  6.89%     -    0s
     0     0   42.19986    0  315   45.29064   42.19986  6.82%     -    0s
     0     0   42.25518    0  359   45.29064   42.25518  6.70%     -    0s
     0     0   44.03477    0  333   45.29064   44.03477  2.77%     -    0s

Cutting planes:
  Gomory: 6
  Clique: 23
  Zero half: 71
  RLT: 27

Explored 1 nodes (5250 simplex iterations) in 0.54 seconds (0.25 work units)
Thread count was 32 (of 128 available processors)

Solution count 4: 45.2906 159.584 255.295 641.033 

Optimal solution found (tolerance 1.00e-04)
Best objective 4.529063971062e+01, best bound 4.529063971062e+01, gap 0.0000%
